p edge 115
e 0 52
e 0 101
e 0 105
e 0 109
e 1 2
e 1 3
e 1 11
e 1 30
e 1 48
e 1 69
e 2 3
e 2 11
e 2 12
e 2 13
e 2 32
e 2 33
e 3 30
e 3 33
e 3 110
e 4 29
e 4 37
e 4 68
e 4 89
e 4 95
e 4 107
e 5 36
e 5 78
e 5 92
e 6 44
e 6 59
e 6 76
e 6 94
e 6 102
e 6 106
e 7 8
e 7 49
e 7 63
e 7 76
e 8 63
e 8 76
e 8 94
e 8 111
e 9 10
e 9 32
e 9 86
e 9 104
e 10 36
e 10 74
e 10 86
e 11 13
e 11 69
e 11 107
e 12 13
e 12 14
e 12 32
e 12 108
e 13 14
e 13 107
e 14 95
e 14 107
e 14 108
e 14 114
e 15 16
e 15 62
e 15 96
e 15 98
e 16 77
e 16 91
e 16 96
e 17 19
e 17 25
e 17 30
e 17 48
e 17 55
e 17 80
e 18 21
e 18 25
e 18 38
e 18 73
e 18 80
e 18 93
e 19 20
e 19 23
e 19 25
e 19 55
e 20 21
e 20 24
e 20 25
e 21 24
e 21 25
e 21 38
e 21 39
e 22 23
e 22 81
e 22 84
e 22 90
e 23 55
e 23 90
e 24 39
e 25 80
e 26 35
e 26 63
e 26 87
e 26 88
e 27 28
e 27 66
e 27 67
e 27 72
e 27 78
e 27 79
e 27 92
e 28 78
e 28 79
e 29 53
e 29 54
e 29 65
e 29 68
e 29 89
e 30 48
e 30 80
e 30 110
e 31 40
e 31 57
e 31 60
e 31 64
e 31 99
e 32 33
e 32 86
e 32 104
e 32 108
e 33 72
e 33 86
e 33 110
e 34 35
e 34 70
e 34 113
e 35 63
e 35 70
e 35 111
e 36 74
e 36 92
e 37 58
e 37 68
e 37 83
e 37 95
e 37 114
e 38 39
e 38 40
e 38 64
e 38 73
e 39 40
e 40 57
e 40 64
e 41 42
e 41 43
e 41 45
e 41 47
e 42 45
e 42 47
e 42 108
e 42 114
e 43 44
e 43 46
e 43 47
e 44 47
e 44 59
e 44 106
e 45 104
e 45 108
e 47 58
e 47 106
e 47 114
e 48 55
e 48 69
e 48 82
e 48 90
e 49 63
e 49 71
e 49 88
e 50 51
e 50 54
e 50 61
e 50 77
e 50 84
e 50 112
e 51 52
e 51 53
e 51 54
e 51 77
e 51 96
e 52 53
e 52 96
e 52 101
e 52 105
e 53 54
e 53 65
e 53 101
e 54 61
e 54 89
e 55 90
e 56 68
e 56 75
e 56 101
e 56 109
e 56 113
e 57 99
e 58 83
e 58 102
e 58 106
e 58 114
e 59 76
e 60 64
e 60 100
e 61 82
e 61 84
e 61 89
e 62 96
e 62 98
e 62 105
e 63 88
e 63 111
e 64 73
e 64 100
e 65 68
e 65 101
e 66 67
e 66 79
e 66 85
e 66 103
e 67 72
e 67 93
e 67 103
e 67 110
e 68 75
e 68 83
e 68 101
e 69 82
e 69 89
e 69 107
e 70 75
e 70 97
e 70 111
e 70 113
e 71 88
e 72 74
e 72 86
e 72 92
e 72 110
e 73 93
e 73 100
e 73 103
e 74 86
e 74 92
e 75 83
e 75 97
e 75 113
e 76 94
e 77 91
e 77 96
e 77 112
e 78 92
e 79 85
e 80 93
e 80 110
e 81 84
e 81 91
e 81 112
e 82 84
e 82 89
e 82 90
e 83 97
e 83 102
e 84 90
e 84 112
e 85 100
e 85 103
e 87 88
e 89 107
e 91 112
e 93 103
e 93 110
e 94 102
e 94 111
e 95 107
e 95 114
e 96 105
e 97 102
e 97 111
e 100 103
e 101 109
e 102 106
e 102 111
e 104 108
e 108 114
c k 8
